
Gurobi 7.0.2 (win64) logging started 06/27/20 11:19:03

Read LP format model from file C:\George\Professor\Pesquisa\Orientacoes em Pos-graduacao\2019 MSC PPGCC Guilherme Figueroa\Fanjuls Solver\Results\I_150_30_S_1-9_1_MTZ_KB.lp
Reading time = 3.71 seconds
: 31860 rows, 684151 columns, 2772030 nonzeros
Optimize a model with 31860 rows, 684151 columns and 2772030 nonzeros
Variable types: 4651 continuous, 679500 integer (679500 binary)
Coefficient statistics:
  Matrix range     [1e+00, 2e+02]
  Objective range  [1e+00, 1e+00]
  Bounds range     [1e+00, 1e+00]
  RHS range        [1e+00, 1e+02]
Presolve removed 0 rows and 0 columns (presolve time = 5s) ...
Presolve time: 6.30s
Presolved: 31860 rows, 684151 columns, 2772030 nonzeros
Variable types: 150 continuous, 684001 integer (684000 binary)
Found heuristic solution: objective 8149.0000000
Found heuristic solution: objective 8148.0000000

Root simplex log...

Iteration    Objective       Primal Inf.    Dual Inf.      Time
       0    0.0000000e+00   3.000000e+02   0.000000e+00     15s
    5210    7.6121270e-05   5.550379e+03   0.000000e+00     20s
    8099    2.2071294e-04   1.127126e+04   0.000000e+00     25s
   10560    3.1209688e-04   2.911599e+04   0.000000e+00     30s
   11174    3.5176178e-04   5.120347e+03   0.000000e+00     35s
   11816    3.8962705e-04   1.315077e+04   0.000000e+00     41s
   12458    4.2091602e-04   2.986961e+03   0.000000e+00     46s
   12994    4.5300058e-04   4.245694e+03   0.000000e+00     50s
   13560    4.7502895e-04   5.892373e+03   0.000000e+00     55s
   14192    4.9360257e-04   2.582212e+03   0.000000e+00     60s
   15065    5.4216178e-04   6.411256e+03   0.000000e+00     66s
   15667    5.7122547e-04   5.482447e+03   0.000000e+00     71s
   16312    6.1968501e-04   7.482967e+03   0.000000e+00     77s
   17253    6.9269771e-04   7.001401e+03   0.000000e+00     81s
   18297    7.4003081e-04   2.948563e+03   0.000000e+00     85s
   19169    7.8009274e-04   5.831617e+03   0.000000e+00     90s
   19812    8.1604416e-04   3.763271e+03   0.000000e+00     96s
   20352    8.4843723e-04   2.685087e+03   0.000000e+00    100s
   21132    8.9392028e-04   2.738864e+03   0.000000e+00    105s
   21698    9.1909489e-04   6.742144e+03   0.000000e+00    111s
   23152    9.9739648e-04   2.901262e+03   0.000000e+00    115s
   24887    1.0692143e-03   1.070953e+04   0.000000e+00    120s
   26571    1.1384364e-03   1.502367e+04   0.000000e+00    125s
   27883    1.1901606e-03   3.233276e+03   0.000000e+00    130s
   29595    1.2631694e-03   8.665276e+03   0.000000e+00    135s
   30566    1.3076320e-03   5.795845e+04   0.000000e+00    140s
   32064    1.3588357e-03   1.876772e+04   0.000000e+00    146s
   32927    1.3954290e-03   6.131975e+04   0.000000e+00    150s
   34104    1.4525367e-03   4.603058e+03   0.000000e+00    155s
   37100    1.5805516e-03   8.040820e+04   0.000000e+00    160s
   38727    1.6429412e-03   8.658889e+03   0.000000e+00    166s
   39694    1.6804773e-03   1.451060e+04   0.000000e+00    171s
   40336    1.7042757e-03   6.181171e+03   0.000000e+00    175s
   41192    1.7444326e-03   3.093170e+04   0.000000e+00    180s
   41834    1.7650778e-03   1.273987e+04   0.000000e+00    186s
   42585    1.7930439e-03   1.869289e+04   0.000000e+00    191s
   43351    1.8319887e-03   1.113760e+04   0.000000e+00    196s
   44231    1.8758783e-03   4.054182e+04   0.000000e+00    201s
   45090    1.9173708e-03   8.836061e+03   0.000000e+00    205s
   46699    1.9958678e-03   8.083292e+03   0.000000e+00    211s
   47234    2.0211457e-03   8.153174e+03   0.000000e+00    215s
   48518    2.0761813e-03   1.438144e+04   0.000000e+00    220s
   50574    2.1656307e-03   1.619729e+04   0.000000e+00    225s
   52072    2.2210870e-03   2.409254e+04   0.000000e+00    230s
   54096    2.3110781e-03   1.001539e+04   0.000000e+00    235s
   56124    2.4301935e-03   2.916648e+04   0.000000e+00    241s
   57434    2.5193576e-03   1.582286e+04   0.000000e+00    245s
   58976    2.6290368e-03   3.548936e+04   0.000000e+00    250s
   62432    2.9526586e-03   2.215510e+04   0.000000e+00    255s
   64203    3.1757860e-03   2.471052e+04   0.000000e+00    260s
   67807    3.7351781e-03   1.589657e+04   0.000000e+00    265s
   71569    4.5423475e-03   1.659907e+04   0.000000e+00    270s
   74817    5.0560184e-03   1.054611e+04   0.000000e+00    275s
   82814    8.4791053e-03   2.848713e+04   0.000000e+00    280s
   90267    2.4240187e+01   2.366499e+03   0.000000e+00    285s
   93200    2.5579054e+01   7.118461e+02   0.000000e+00    290s
   95721    2.6054722e+01   2.823521e+03   0.000000e+00    295s
   97167    2.6322113e+01   2.718360e+03   0.000000e+00    300s
   98395    2.6545593e+01   1.717347e+03   0.000000e+00    305s
   99929    2.6797646e+01   4.324809e+02   0.000000e+00    311s
  100542    2.6881606e+01   2.708727e+02   0.000000e+00    316s
  101097    2.6995803e+01   3.455433e+03   0.000000e+00    320s
  101732    2.7037952e+01   5.234812e+02   0.000000e+00    326s
  102465    2.7096776e+01   6.656050e+02   0.000000e+00    330s
  103201    2.7134191e+01   5.680298e+01   0.000000e+00    337s
  103538    2.7149495e+01   2.585867e+02   0.000000e+00    340s
  104147    2.7164068e+01   1.149278e+01   0.000000e+00    346s
  104664    2.7168560e+01   6.209288e+01   0.000000e+00    352s
  105080    2.7171376e+01   5.589162e+00   0.000000e+00    356s
  105401    2.7173490e+01   2.022935e+01   0.000000e+00    362s
  105720    2.7174014e+01   1.929327e+00   0.000000e+00    367s
  105957    2.7174114e+01   9.574649e-02   0.000000e+00    372s
  106078    2.7172554e+01   0.000000e+00   0.000000e+00    374s

Root relaxation: objective 2.717255e+01, 106078 iterations, 358.66 seconds
Total elapsed time = 376.89s

    Nodes    |    Current Node    |     Objective Bounds      |     Work
 Expl Unexpl |  Obj  Depth IntInf | Incumbent    BestBd   Gap | It/Node Time

     0     0   27.17255    0  473 8148.00000   27.17255   100%     -  380s
H    0     0                     102.0000000   27.17255  73.4%     -  635s
H    0     0                      45.0000000   27.17255  39.6%     -  746s
     0     0   27.34700    0  526   45.00000   27.34700  39.2%     -  764s
     0     0   27.34700    0  467   45.00000   27.34700  39.2%     -  848s
H    0     0                      40.0000000   27.34700  31.6%     -  851s
     0     0   28.00000    0  651   40.00000   28.00000  30.0%     -  885s
H    0     0                      39.0000000   28.00000  28.2%     -  901s
     0     0   28.00000    0  583   39.00000   28.00000  28.2%     -  911s
     0     0   28.00000    0  612   39.00000   28.00000  28.2%     -  934s
     0     0   28.00000    0  607   39.00000   28.00000  28.2%     -  935s
     0     0   28.00000    0  582   39.00000   28.00000  28.2%     -  959s
     0     0   28.00000    0  584   39.00000   28.00000  28.2%     -  964s
     0     0   28.00000    0  553   39.00000   28.00000  28.2%     -  978s
     0     0   28.00000    0  579   39.00000   28.00000  28.2%     -  983s
     0     0   28.00000    0  590   39.00000   28.00000  28.2%     -  993s
H    0     0                      35.0000000   28.00000  20.0%     - 1016s
     0     0   28.00000    0  551   35.00000   28.00000  20.0%     - 1016s
     0     0   28.00000    0  410   35.00000   28.00000  20.0%     - 1046s
     0     0   28.00000    0  619   35.00000   28.00000  20.0%     - 1060s
     0     0   28.00000    0  360   35.00000   28.00000  20.0%     - 1101s
     0     0   28.00000    0  590   35.00000   28.00000  20.0%     - 1116s
     0     0   28.00000    0  396   35.00000   28.00000  20.0%     - 1150s
     0     0   28.00000    0  493   35.00000   28.00000  20.0%     - 1163s
     0     0   28.00000    0  347   35.00000   28.00000  20.0%     - 1202s
     0     0   28.00000    0  558   35.00000   28.00000  20.0%     - 1233s
     0     0   28.00000    0  347   35.00000   28.00000  20.0%     - 1267s
     0     0   28.00000    0  347   35.00000   28.00000  20.0%     - 1341s
     0     2   28.00000    0  336   35.00000   28.00000  20.0%     - 1386s
     2     3   28.00000    0  526   35.00000   28.00000  20.0%  3883 1459s
     4     4   28.00000    0  341   35.00000   28.00000  20.0%  1942 1485s
     5     5   28.00000    0  694   35.00000   28.00000  20.0%  1553 1502s
     6     6   28.00000    0  634   35.00000   28.00000  20.0%  1294 1512s
     7     6   28.00000    0  708   35.00000   28.00000  20.0%  1109 1518s
     8     7   28.00000    0  683   35.00000   28.00000  20.0%   971 1524s
     9     8   28.00000    0  388   35.00000   28.00000  20.0%   863 1549s
    10     8   28.00000    0  551   35.00000   28.00000  20.0%   777 1566s
    11     9   28.00000    0  491   35.00000   28.00000  20.0%   706 1590s
    12    10   28.00000    0  611   35.00000   28.00000  20.0%   647 1599s
    13    10   28.00000    0  433   35.00000   28.00000  20.0%   597 1623s
    14    11   28.00000    0  666   35.00000   28.00000  20.0%   555 1640s
    15    12   28.00000    0  440   35.00000   28.00000  20.0%   518 1686s
    16    12   28.00000    0  576   35.00000   28.00000  20.0%   485 1697s
    17    13   28.00000    0  484   35.00000   28.00000  20.0%   457 1720s
    18    14   28.00000    0  570   35.00000   28.00000  20.0%   431 1730s
    19    14   28.00000    0  427   35.00000   28.00000  20.0%   409 1761s
    20    15   28.00000    0  635   35.00000   28.00000  20.0%   388 1778s
    21    16   28.00000    0  447   35.00000   28.00000  20.0%   370 1807s
    22    16   28.00000    0  623   35.00000   28.00000  20.0%   353 1816s
    23    17   28.00000    0  414   35.00000   28.00000  20.0%   338 1898s
    24    18   28.00000    0  414   35.00000   28.00000  20.0%   324 1908s
    25    18   28.00000    0  414   35.00000   28.00000  20.0%   311 1932s
    26    21   28.00000   12  443   35.00000   28.00000  20.0% 17633 2023s
    27    22   28.00000   12  478   35.00000   28.00000  20.0% 17038 2084s
    28    22   28.00000   13  591   35.00000   28.00000  20.0% 16867 2178s
    29    23   28.00000   13  576   35.00000   28.00000  20.0% 16393 2218s
    30    24   28.00000   14  548   35.00000   28.00000  20.0% 15951 2250s
    31    24   28.00000   14  505   35.00000   28.00000  20.0% 15469 2263s
    32    25   28.00000   15  552   35.00000   28.00000  20.0% 14997 2286s
    33    26   28.00000   15  590   35.00000   28.00000  20.0% 14574 2299s
    34    26   28.00000   16  504   35.00000   28.00000  20.0% 14186 2307s
    35    27   28.00000   16  634   35.00000   28.00000  20.0% 13848 2321s
    36    28   28.00000   17  512   35.00000   28.00000  20.0% 13491 2327s
    37    28   28.00000   17  522   35.00000   28.00000  20.0% 13143 2331s
    38    29   28.00000   18  552   35.00000   28.00000  20.0% 12859 2342s
    39    30   28.00000   18  503   35.00000   28.00000  20.0% 12557 2346s
    40    30   28.00000   19  511   35.00000   28.00000  20.0% 12299 2374s
    41    31   28.00000   19  538   35.00000   28.00000  20.0% 12014 2379s
    42    32   28.00000   20  528   35.00000   28.00000  20.0% 11792 2391s
    43    32   28.00000   20  514   35.00000   28.00000  20.0% 11549 2398s
    44    33   28.00000   21  580   35.00000   28.00000  20.0% 11298 2405s
    45    34   28.00000   21  573   35.00000   28.00000  20.0% 11131 2416s
    46    34   28.00000   22  561   35.00000   28.00000  20.0% 10927 2422s
    47    35   28.00000   22  548   35.00000   28.00000  20.0% 10725 2427s
    48    36   28.00000   23  569   35.00000   28.00000  20.0% 10509 2430s
    50    37   28.00000   24  529   35.00000   28.00000  20.0% 10109 2437s
    51    38   28.00000   24  568   35.00000   28.00000  20.0%  9927 2440s
    53    39   28.00000   25  517   35.00000   28.00000  20.0%  9600 2451s
    55    40   28.00000   26  530   35.00000   28.00000  20.0%  9300 2460s
    57    42   28.00000   27  569   35.00000   28.00000  20.0%  9039 2475s
    58    42   28.00000   28  573   35.00000   28.00000  20.0%  8896 2481s
    59    43   28.00000   28  566   35.00000   28.00000  20.0%  8778 2487s
    60    44   28.00000   29  546   35.00000   28.00000  20.0%  8654 2492s
    61    44   28.00000   29  532   35.00000   28.00000  20.0%  8533 2495s
    62    45   28.00000   30  572   35.00000   28.00000  20.0%  8433 2501s
    63    45   28.01539   30  490   35.00000   28.00000  20.0%  8346 2508s
    64    44   28.00967   31  513   35.00000   28.00000  20.0%  8250 2512s
    65    45   28.00000   31  569   35.00000   28.00000  20.0%  8149 2516s
    67    46   28.00000   32  587   35.00000   28.00000  20.0%  7946 2525s
    69    47   28.03499   33  511   35.00000   28.00000  20.0%  7770 2533s
    70    47   28.00000   34  538   35.00000   28.00000  20.0%  7682 2536s
    71    47   28.00680   34  517   35.00000   28.00000  20.0%  7617 2541s
    73    47   28.03229   35  483   35.00000   28.00000  20.0%  7471 2550s
    74    48   28.00000   36  579   35.00000   28.00000  20.0%  7399 2555s
    76    48   28.00000   37  490   35.00000   28.00000  20.0%  7243 2560s
    77    48   28.01995   37  541   35.00000   28.00000  20.0%  7183 2566s
    79    48   28.00000   38  533   35.00000   28.00000  20.0%  7037 2572s
    81    49   28.01497   39  505   35.00000   28.00000  20.0%  6896 2578s
    83    50   28.06086   40  481   35.00000   28.00000  20.0%  6749 2582s
    85    52   29.00000   41  520   35.00000   28.00000  20.0%  6609 2592s
    87    53   28.03355   42  496   35.00000   28.00000  20.0%  6476 2595s
    89    53   28.07430   43  487   35.00000   28.00000  20.0%  6361 2600s
    90    54   29.00000   44  608   35.00000   28.00000  20.0%  6470 2627s
    91    55   29.00000   45  529   35.00000   28.00000  20.0%  6403 2639s
    92    56   31.00000   45  494   35.00000   28.00000  20.0%  6342 2650s
    93    57   29.00000   46  520   35.00000   28.00000  20.0%  6281 2655s
    94    58   29.00000   46  554   35.00000   28.00000  20.0%  6230 2699s
    95    59   29.00000   47  486   35.00000   28.00000  20.0%  6199 2720s
    96    60   29.00000   47  537   35.00000   28.00000  20.0%  6155 2772s
    97    61   29.00000   48  521   35.00000   28.00000  20.0%  6107 2777s
    98    62   29.00000   48  476   35.00000   28.00000  20.0%  6046 2780s
   100    64   29.00000   49  520   35.00000   28.00000  20.0%  5946 2788s
   101    65   29.00000   50  528   35.00000   28.00000  20.0%  5895 2792s
   102    66   29.00000   50  478   35.00000   28.00000  20.0%  5851 2796s
   104    68   31.00000   51  474   35.00000   28.00000  20.0%  5744 2802s
   106    70   30.00000   52  512   35.00000   28.00000  20.0%  5658 2810s
   108    72   29.00000   53  496   35.00000   28.00000  20.0%  5573 2815s
   111    75   29.00000   55  443   35.00000   28.00000  20.0%  5473 2825s
   114    78   33.00000   56  486   35.00000   28.00000  20.0%  5342 2831s
   116    80   29.00000   57  483   35.00000   28.00000  20.0%  5267 2837s
   118    82   29.00000   58  480   35.00000   28.00000  20.0%  5197 2841s
   120    84   29.00000   59  466   35.00000   28.00000  20.0%  5130 2845s
   122    86   29.00000   60  429   35.00000   28.00000  20.0%  5071 2851s
   126    90   34.00000   62  464   35.00000   28.00000  20.0%  4917 2857s
   128    91   29.00000   63  461   35.00000   28.00000  20.0%  4866 2862s
   130    93   29.00000   64  463   35.00000   28.00000  20.0%  4810 2867s
   132    95   29.00000   65  409   35.00000   28.00000  20.0%  4744 2870s
   136    99   34.00000   67  406   35.00000   28.00000  20.0%  4623 2878s
   137   100   29.00000   68  436   35.00000   28.00000  20.0%  4594 2880s
   139   102   29.00000   69  465   35.00000   28.00000  20.0%  4555 2886s
   142   105   31.00000   70  502   35.00000   28.00000  20.0%  4467 2894s
   143   106   29.00000   71  446   35.00000   28.00000  20.0%  4443 2896s
   146   109   30.00000   72  415   35.00000   28.00000  20.0%  4369 2902s
   148   111   29.00000   73  484   35.00000   28.00000  20.0%  4321 2905s
   152   115   29.00000   75  473   35.00000   28.00000  20.0%  4239 2912s
   154   117   29.00000   76  466   35.00000   28.00000  20.0%  4196 2915s
   157   119   29.00000   78  457   35.00000   28.00000  20.0%  4140 2921s
   159   119   29.02783   79  416   35.00000   28.00000  20.0%  4113 2926s
   161   120   30.00000   80  453   35.00000   28.00000  20.0%  4083 2934s
   162   121   30.00000   81  472   35.00000   28.00000  20.0%  4062 2943s
   165   124   34.00000   82  438   35.00000   28.00000  20.0%  3990 2946s
   168   127   30.00000   84  476   35.00000   28.00000  20.0%  3926 2950s
   171   130   32.00000   85  522   35.00000   28.00000  20.0%  3861 2956s
   174   133   30.00000   87  480   35.00000   28.00000  20.0%  3799 2960s
   179   138   30.00000   89  450   35.00000   28.00000  20.0%  3704 2966s
   182   141   30.00000   91  487   35.00000   28.00000  20.0%  3654 2970s
   186   145   30.00000   93  455   35.00000   28.00000  20.0%  3587 2976s
   188   147   30.00000   94  432   35.00000   28.00000  20.0%  3549 2981s
   189   148   33.00000   94  453   35.00000   28.00000  20.0%  3532 2985s
   193   152   30.00000   96  450   35.00000   28.00000  20.0%  3486 2994s
   195   154   30.00000   97  470   35.00000   28.00000  20.0%  3457 2996s
   198   157   30.00000   99  457   35.00000   28.00000  20.0%  3413 3000s
   205   162   32.00000  102  394   35.00000   28.00000  20.0%  3311 3006s
   208   164   31.13342  104  380   35.00000   28.00000  20.0%  3278 3011s
   210   166   31.00000  105  407   35.00000   28.00000  20.0%  3255 3015s
   214   170   33.00000  107  428   35.00000   28.00000  20.0%  3202 3021s
   218   174   32.00000  109  393   35.00000   28.00000  20.0%  3157 3026s
   222   178   34.00000  111  404   35.00000   28.00000  20.0%  3110 3030s
   226   182   33.00000  113  434   35.00000   28.00000  20.0%  3063 3036s
   232   188   31.00000  116  412   35.00000   28.00000  20.0%  2991 3040s
   239   195   31.00000  120  426   35.00000   28.00000  20.0%  2925 3046s
   246   202   33.00000  123  365   35.00000   28.00000  20.0%  2851 3050s
   249   204   32.00000  125  412   35.00000   28.00000  20.0%  2829 3055s
   253   207   32.00000  127  373   35.00000   28.00000  20.0%  2793 3060s
   257   211   32.00000  130  404   35.00000   28.00000  20.0%  2760 3065s
   261   213   32.39158  132  330   35.00000   28.00000  20.0%  2737 3070s
   265   216   33.00000  134  390   35.00000   28.00000  20.0%  2711 3075s
   273   223   33.00000  138  376   35.00000   28.00000  20.0%  2647 3080s
   277   227   33.00000  140  387   35.00000   28.00000  20.0%  2621 3085s
   283   232   33.19260  143  327   35.00000   28.00000  20.0%  2579 3090s
   287   236   33.00000  145  397   35.00000   28.00000  20.0%  2554 3095s
   297   244   33.00000  150  320   35.00000   28.00000  20.0%  2481 3100s
   308   249   34.00000  156  317   35.00000   28.00000  20.0%  2408 3105s
   318   257   34.00000  161  333   35.00000   28.00000  20.0%  2345 3110s
   324   261   34.00000  164  336   35.00000   28.00000  20.0%  2317 3115s
   330   265   34.00000  167  324   35.00000   28.00000  20.0%  2287 3120s
   340   270   34.00000  172  327   35.00000   28.00000  20.0%  2234 3125s
   351   277 infeasible  178        35.00000   28.00000  20.0%  2176 3130s
   356   276   28.00000   13  596   35.00000   28.00000  20.0%  2164 3145s
   358   278   28.00000   14  623   35.00000   28.00000  20.0%  2161 3154s
   359   279   28.00000   15  605   35.00000   28.00000  20.0%  2155 3155s
   360   279   28.01200   15  503   35.00000   28.00000  20.0%  2160 3164s
   361   280   28.00000   16  593   35.00000   28.00000  20.0%  2158 3168s
   362   281   28.00000   16  591   35.00000   28.00000  20.0%  2152 3170s
   364   283   28.00000   17  575   35.00000   28.00000  20.0%  2146 3176s
   366   285   28.00000   18  582   35.00000   28.00000  20.0%  2137 3181s
   369   287   28.00000   20  578   35.00000   28.00000  20.0%  2120 3185s
   370   287   28.02892   20  567   35.00000   28.00000  20.0%  2124 3191s
   371   288   28.00000   21  557   35.00000   28.00000  20.0%  2124 3196s
   372   289   28.00000   21  572   35.00000   28.00000  20.0%  2125 3200s
   375   292   28.00000   23  600   35.00000   28.00000  20.0%  2118 3209s
   376   293   28.00000   23  559   35.00000   28.00000  20.0%  2113 3226s
   378   295   28.00000   24  550   35.00000   28.00000  20.0%  2107 3231s
   380   297   28.00000   25  569   35.00000   28.00000  20.0%  2100 3235s
   382   299   28.00000   26  558   35.00000   28.00000  20.0%  2096 3241s
   384   301   28.00000   27  613   35.00000   28.00000  20.0%  2094 3248s
   385   301   28.02304   28  524   35.00000   28.00000  20.0%  2091 3250s
   388   304   28.00000   29  580   35.00000   28.00000  20.0%  2079 3255s
   390   305   28.00195   30  528   35.00000   28.00000  20.0%  2074 3261s
   392   306   28.00000   31  583   35.00000   28.00000  20.0%  2067 3265s
   394   307   28.00665   32  499   35.00000   28.00000  20.0%  2064 3271s
   396   307   28.00198   33  523   35.00000   28.00000  20.0%  2058 3275s
   397   308   29.00000   34  547   35.00000   28.00000  20.0%  2066 3289s
   398   309   29.00000   35  575   35.00000   28.00000  20.0%  2062 3294s
   399   310   30.00000   35  520   35.00000   28.00000  20.0%  2062 3303s
   400   311   29.00000   36  537   35.00000   28.00000  20.0%  2061 3310s
   402   313   29.00000   37  561   35.00000   28.00000  20.0%  2055 3320s
   404   315   29.00000   38  542   35.00000   28.00000  20.0%  2047 3327s
   405   316   29.00000   38  534   35.00000   28.00000  20.0%  2050 3335s
   406   317   29.00000   39  530   35.00000   28.00000  20.0%  2053 3342s
   409   320   29.00000   40  503   35.00000   28.00000  20.0%  2043 3348s
   411   322   34.00000   41  468   35.00000   28.00000  20.0%  2033 3350s
   412   323   29.00000   42  482   35.00000   28.00000  20.0%  2033 3355s
   415   325   29.28399   43  440   35.00000   28.00000  20.0%  2032 3367s
   416   326   29.00000   44  499   35.00000   28.00000  20.0%  2028 3370s
   417   326   29.25097   44  430   35.00000   28.00000  20.0%  2038 3378s
   418   327   29.00000   45  479   35.00000   28.00000  20.0%  2034 3380s
   419   328   29.00000   45  520   35.00000   28.00000  20.0%  2033 3385s
   422   331   29.00000   47  465   35.00000   28.00000  20.0%  2026 3393s
   425   334   29.00000   48  463   35.00000   28.00000  20.0%  2017 3400s
   428   337   29.00000   50  502   35.00000   28.00000  20.0%  2005 3405s
   431   340   29.00000   51  544   35.00000   28.00000  20.0%  2005 3417s
   432   341   29.00000   52  497   35.00000   28.00000  20.0%  2004 3420s
   434   343   29.00000   53  501   35.00000   28.00000  20.0%  1998 3425s
   435   344   29.00000   53  509   35.00000   28.00000  20.0%  2000 3431s
   436   345   29.00000   54  511   35.00000   28.00000  20.0%  2001 3435s
   438   347   29.00000   55  518   35.00000   28.00000  20.0%  1999 3440s
   439   348   29.00000   55  478   35.00000   28.00000  20.0%  2003 3446s
   441   350   29.00000   56  490   35.00000   28.00000  20.0%  1998 3450s
   444   353   29.00000   58  475   35.00000   28.00000  20.0%  1988 3456s
   447   355   29.00000   59  490   35.00000   28.00000  20.0%  1980 3464s
   448   356   29.00000   60  489   35.00000   28.00000  20.0%  1976 3467s
   449   357   29.00000   61  493   35.00000   28.00000  20.0%  1975 3470s
   452   360   29.00000   62  538   35.00000   28.00000  20.0%  1972 3476s
   454   362   29.00000   63  504   35.00000   28.00000  20.0%  1967 3481s
   457   365   29.00000   65  510   35.00000   28.00000  20.0%  1964 3488s
   458   366   29.00000   65  535   35.00000   28.00000  20.0%  1964 3491s
   461   369   29.00000   67  486   35.00000   28.00000  20.0%  1955 3495s
   463   371   29.00000   68  516   35.00000   28.00000  20.0%  1948 3500s
   466   374   29.00000   69  503   35.00000   28.00000  20.0%  1941 3505s
   469   377   29.00000   71  507   35.00000   28.00000  20.0%  1937 3510s
   472   379   29.19779   72  388   35.00000   28.00000  20.0%  1930 3515s
   479   384   29.00000   76  496   35.00000   28.00000  20.0%  1912 3520s
   483   386   29.02884   78  414   35.00000   28.00000  20.0%  1905 3525s
   485   387   30.00000   79  492   35.00000   28.00000  20.0%  1906 3532s
   488   390   30.00000   81  499   35.00000   28.00000  20.0%  1898 3535s
   490   392   30.00000   82  499   35.00000   28.00000  20.0%  1898 3541s
   493   395   30.00000   83  512   35.00000   28.00000  20.0%  1895 3548s
   495   397   30.00000   84  487   35.00000   28.00000  20.0%  1891 3551s
   498   400   30.00000   86  476   35.00000   28.00000  20.0%  1885 3555s
   500   402   30.00000   87  455   35.00000   28.00000  20.0%  1886 3563s
   501   403   30.00000   87  476   35.00000   28.00000  20.0%  1885 3566s
   504   406   30.00000   89  465   35.00000   28.00000  20.0%  1876 3570s
   506   408   30.00000   90  498   35.00000   28.00000  20.0%  1874 3576s
   509   411   31.00000   91  503   35.00000   28.00000  20.0%  1870 3582s
   511   413   30.00000   92  466   35.00000   28.00000  20.0%  1868 3586s
   513   414   30.00000   93  448   35.00000   28.00000  20.0%  1870 3590s
   518   419   30.00000   96  427   35.00000   28.00000  20.0%  1858 3595s

Cutting planes:
  Gomory: 3
  Cover: 1
  Implied bound: 13
  Clique: 17
  MIR: 23
  Flow cover: 76
  Zero half: 14

Explored 522 nodes (1079807 simplex iterations) in 3600.07 seconds
Thread count was 1 (of 12 available processors)

Solution count 7: 35 39 40 ... 8149
Pool objective bound 28

Time limit reached
Best objective 3.500000000000e+01, best bound 2.800000000000e+01, gap 20.0000%
